(set-logic ALL)
(declare-fun var0 () String)
(assert (str.in_re var0 (re.++ (re.+ (re.union (str.to_re "00") (str.to_re "11"))) (re.++ (re.+ (re.+ (str.to_re "22"))) (re.++ (re.union (re.union (str.to_re "3") (str.to_re "444")) (re.union (str.to_re "555") (str.to_re "66"))) (re.++ (re.+ (re.+ (str.to_re "77"))) (re.++ (re.+ (re.+ (str.to_re "888"))) (re.union (re.* (str.to_re "99")) (re.* (str.to_re "a"))))))))))
(assert (not (str.in_re var0 (re.++ (re.* (re.* (str.to_re "00"))) (re.++ (re.+ (re.union (str.to_re "111") (str.to_re "2"))) (re.++ (re.union (re.union (str.to_re "3") (str.to_re "44")) (re.union (str.to_re "5") (str.to_re "666"))) (re.++ (re.* (re.union (str.to_re "77") (str.to_re "888"))) (re.++ (re.+ (re.+ (str.to_re "99"))) (re.* (re.* (str.to_re "aaa")))))))))))
(check-sat)